c WARNING: for repeatability, setting FPU to use double precision
d VARIABLES            201564       
d CONSTRAINTS          921707       
c ============================[ Problem Statistics ]=============================
c |                                                                             |
c |  Number of variables:        201564                                         |
c |  Number of clauses:          921707                                         |
c |  Parse time:                   0.16 s                                       |
c |                                                                             |
c ============================[ Search Statistics ]==============================
c | Conflicts |          ORIGINAL         |          LEARNT          | Progress |
c |           |    Vars  Clauses Literals |    Limit  Clauses Lit/Cl |          |
c ===============================================================================
c |       100 |  177998   854619  2065578 |   313360      100     15 | 11.692 % |
c |       250 |  177998   854619  2065578 |   344696      250     28 | 11.692 % |
c |       475 |  177998   854619  2065578 |   379165      475     42 | 11.692 % |
c |       812 |  177998   854619  2065578 |   417082      812     37 | 11.692 % |
c |      1318 |  177998   854619  2065578 |   458790     1318     52 | 11.692 % |
c |      2077 |  177998   854619  2065578 |   504669     2077     65 | 11.692 % |
c |      3216 |  177998   854619  2065578 |   555136     3216    101 | 11.692 % |
c |      4924 |  177998   854619  2065578 |   610650     4924     96 | 11.692 % |
c |      7486 |  177998   854619  2065578 |   671715     7486    133 | 11.692 % |
c |     11330 |  177998   854619  2065578 |   738887    11330    157 | 11.692 % |
c |     17096 |  177998   854619  2065578 |   812775    17096    152 | 11.692 % |
c |     25745 |  177998   854619  2065578 |   894053    25745    149 | 11.692 % |
c |     38719 |  177998   854619  2065578 |   983458    38719    157 | 11.692 % |
c |     58180 |  177998   854619  2065578 |  1081804    58180    158 | 11.692 % |
c ===============================================================================
c restarts              : 189
c conflicts             : 59436          (1952 /sec)
c decisions             : 352270         (0.00 % random) (11569 /sec)
c propagations          : 156121634      (5127164 /sec)
c conflict literals     : 9371130        (15.36 % deleted)
d RESTARTS             189
d FAILURES             59436        
d NODES                352270       
d BACKTRACKS           352270       
d PROPAGATIONS         156121634    
d NOGOODSIZE           157.67 
d MEMORY               138.00 
d TIME                 30.4499 

s SATISFIABLE
